% Número total de personas
n = 100;

% Número de opiniones posibles
m = 5;

% Distribución inicial de personas por opinión
p = [25, 25, 25, 25, 25];

% Valores de las opiniones
v = [0.000, 0.250, 0.500, 0.750, 1.000];

% Costos extras al mover a opiniones vacías
ce = [5.966, 9.165, 13.365, 2.989, 6.069];

% Matriz de costos de mover de una opinión a otra
C = array2d(1..5, 1..5,
  [
    0.000,    0.511,    1.202,    2.555,    2.002,
    2.300,    0.000,    4.061,    4.813,    0.273,
    1.567,    2.686,    0.000,    2.846,    4.594,
    0.079,    3.124,    2.970,    0.000,    4.756,
    0.335,    3.641,    4.060,    4.365,    0.000
  ]);

% Costo total máximo permitido
C_max = 60.020;

% Número máximo de movimientos permitidos
M_max = 30;
